
Gurobi 6.5.2 (linux64) logging started Wed Mar 15 13:01:29 2017


Gurobi 6.5.2 (linux64) logging started Wed Mar 15 13:01:29 2017

Optimize a model with 401 rows, 10150 columns and 21657 nonzeros
Coefficient statistics:
  Matrix range    [1e+00, 2e+00]
  Objective range [1e+00, 1e+02]
  Bounds range    [1e+00, 1e+00]
  RHS range       [1e+00, 1e+00]
Presolve removed 107 rows and 1 columns
Presolve time: 0.04s
Presolved: 294 rows, 10149 columns, 20720 nonzeros
Variable types: 0 continuous, 10149 integer (10149 binary)

Root relaxation: objective 1.149250e+03, 235 iterations, 0.00 seconds

    Nodes    |    Current Node    |     Objective Bounds      |     Work
 Expl Unexpl |  Obj  Depth IntInf | Incumbent    BestBd   Gap | It/Node Time

     0     0 1149.25000    0   64          - 1149.25000      -     -    0s
     0     0 1220.33333    0   53          - 1220.33333      -     -    0s
     0     0 1236.77083    0   57          - 1236.77083      -     -    0s
     0     0 1237.60417    0   70          - 1237.60417      -     -    0s
     0     0 1242.41667    0   92          - 1242.41667      -     -    0s
     0     0 1242.54167    0   93          - 1242.54167      -     -    0s
     0     0 1245.66667    0   85          - 1245.66667      -     -    0s
     0     0 1245.86667    0   88          - 1245.86667      -     -    0s
     0     0 1246.53571    0   99          - 1246.53571      -     -    0s
     0     0 1246.53571    0   83          - 1246.53571      -     -    0s
     0     2 1246.53571    0   83          - 1246.53571      -     -    2s
  2338  2259 1297.50000  122    6          - 1250.03571      -   4.4    5s

Cutting planes:
  Gomory: 56
  Cover: 148
  MIR: 3
  Flow cover: 14
  Zero half: 9
  Lazy constraints: 17

Explored 3489 nodes (18366 simplex iterations) in 10.01 seconds
Thread count was 8 (of 8 available processors)

Time limit reached
Best objective -, best bound 1.259000000000e+03, gap -
